[[53, 52, 51, 60, 61, 62, 63, 69, 70, 71, 72, 81, 80, 79, 89, 90, 99, 98], [97, 96, 88, 87, 86, 95, 94, 93, 92, 91, 82, 83, 73, 84, 75, 76, 85, 77, 78, 68, 67], [66, 74, 64, 65, 56, 59, 58, 49, 57, 55, 46, 47, 38, 48, 39, 40, 50, 41, 32, 29, 37, 28, 19], [30, 31, 21, 24, 23, 22, 13, 20, 11, 10, 2, 12, 3, 4, 14, 5, 6, 7], [8, 9, 18, 17, 15, 16, 25, 26, 27, 35, 36, 44, 34, 33, 43, 42, 45, 54]]